LWAVE=.FALSE.
LCHARG=.TRUE.
ISTART=0
ICHARG=2
LORBIT=11
LMAXMIX=6

ISPIN=2

ALGO=Normal
PREC=Accurate
ENCUT=500
ENAUG=900
LREAL=.FALSE.
LASPH=.TRUE.
ADDGRID=.FALSE.
SYMPREC=1e-5

ISMEAR=0
SIGMA=0.05

EDIFFG=-0.01
NELMIN=5
MAXMIX=80
NELM=50
NFREE=10

NSW=100
IBRION=1
ISIF=3

