httk_tutorial
1.0000000000000000
   0.00000000000000   2.20000000000000   2.20000000000000
   2.20000000000000   0.00000000000000   2.20000000000000
   2.20000000000000   2.20000000000000   0.00000000000000
    Am   N
    1    1
Direct
   0.00000000000000   0.00000000000000   0.00000000000000
   0.50000000000000   0.50000000000000   0.50000000000000
